c Generated map
c Size: 8 * 8, weights in range: 1 to 10, walls: False, with ratio 0.0
c dim 5 of 8
c
p sp 64 112
c graph contains 64 nodes and 112 arcs
c
a 1 9 8
a 9 1 8
a 1 2 7
a 2 1 7
a 2 10 8
a 10 2 8
a 2 3 7
a 3 2 7
a 3 11 3
a 11 3 3
a 3 4 5
a 4 3 5
a 4 12 10
a 12 4 10
a 4 5 2
a 5 4 2
a 5 13 8
a 13 5 8
a 5 6 8
a 6 5 8
a 6 14 3
a 14 6 3
a 6 7 3
a 7 6 3
a 7 15 7
a 15 7 7
a 7 8 10
a 8 7 10
a 8 16 5
a 16 8 5
a 9 17 7
a 17 9 7
a 9 10 1
a 10 9 1
a 10 18 2
a 18 10 2
a 10 11 10
a 11 10 10
a 11 19 4
a 19 11 4
a 11 12 2
a 12 11 2
a 12 20 6
a 20 12 6
a 12 13 2
a 13 12 2
a 13 21 8
a 21 13 8
a 13 14 1
a 14 13 1
a 14 22 2
a 22 14 2
a 14 15 1
a 15 14 1
a 15 23 3
a 23 15 3
a 15 16 2
a 16 15 2
a 16 24 9
a 24 16 9
a 17 25 8
a 25 17 8
a 17 18 3
a 18 17 3
a 18 26 2
a 26 18 2
a 18 19 7
a 19 18 7
a 19 27 5
a 27 19 5
a 19 20 7
a 20 19 7
a 20 28 10
a 28 20 10
a 20 21 5
a 21 20 5
a 21 29 2
a 29 21 2
a 21 22 3
a 22 21 3
a 22 30 2
a 30 22 2
a 22 23 8
a 23 22 8
a 23 31 7
a 31 23 7
a 23 24 6
a 24 23 6
a 24 32 6
a 32 24 6
a 25 33 3
a 33 25 3
a 25 26 8
a 26 25 8
a 26 34 2
a 34 26 2
a 26 27 3
a 27 26 3
a 27 35 10
a 35 27 10
a 27 28 9
a 28 27 9
a 28 36 5
a 36 28 5
a 28 29 1
a 29 28 1
a 29 37 7
a 37 29 7
a 29 30 3
a 30 29 3
a 30 38 4
a 38 30 4
a 30 31 6
a 31 30 6
a 31 39 5
a 39 31 5
a 31 32 10
a 32 31 10
a 32 40 2
a 40 32 2
a 33 41 9
a 41 33 9
a 33 34 4
a 34 33 4
a 34 42 10
a 42 34 10
a 34 35 5
a 35 34 5
a 35 43 10
a 43 35 10
a 35 36 10
a 36 35 10
a 36 44 5
a 44 36 5
a 36 37 6
a 37 36 6
a 37 45 10
a 45 37 10
a 37 38 9
a 38 37 9
a 38 46 10
a 46 38 10
a 38 39 1
a 39 38 1
a 39 47 10
a 47 39 10
a 39 40 2
a 40 39 2
a 40 48 3
a 48 40 3
a 41 49 6
a 49 41 6
a 41 42 10
a 42 41 10
a 42 50 3
a 50 42 3
a 42 43 6
a 43 42 6
a 43 51 3
a 51 43 3
a 43 44 3
a 44 43 3
a 44 52 4
a 52 44 4
a 44 45 7
a 45 44 7
a 45 53 1
a 53 45 1
a 45 46 7
a 46 45 7
a 46 54 6
a 54 46 6
a 46 47 9
a 47 46 9
a 47 55 10
a 55 47 10
a 47 48 1
a 48 47 1
a 48 56 9
a 56 48 9
a 49 57 4
a 57 49 4
a 49 50 5
a 50 49 5
a 50 58 6
a 58 50 6
a 50 51 3
a 51 50 3
a 51 59 3
a 59 51 3
a 51 52 6
a 52 51 6
a 52 60 1
a 60 52 1
a 52 53 10
a 53 52 10
a 53 61 5
a 61 53 5
a 53 54 8
a 54 53 8
a 54 62 9
a 62 54 9
a 54 55 1
a 55 54 1
a 55 63 10
a 63 55 10
a 55 56 4
a 56 55 4
a 56 64 4
a 64 56 4
a 57 58 6
a 58 57 6
a 58 59 8
a 59 58 8
a 59 60 7
a 60 59 7
a 60 61 5
a 61 60 5
a 61 62 7
a 62 61 7
a 62 63 10
a 63 62 10
a 63 64 6
a 64 63 6
